(set-logic QF_SLIA)
(declare-fun var0 () String)
(assert (str.in_re var0 (re.++ ((_ re.loop 8 982) (re.++ (re.union (str.to_re "T") (re.union (str.to_re "TqW") (re.union (str.to_re "aw[") (str.to_re "m")))) (re.++ (re.union (str.to_re "w)") (re.union (str.to_re "'~\\") (re.union (str.to_re "tt]") (str.to_re "kq")))) (re.++ (re.union (str.to_re "hB6") (re.union (str.to_re "?") (re.union (str.to_re "fF") (str.to_re "gd")))) (re.union (str.to_re "]") (re.union (str.to_re "x") (re.union (str.to_re "h") (str.to_re "{V~")))))))) (re.++ ((_ re.loop 0 531) (re.++ (re.union (str.to_re "tS") (re.union (str.to_re "{^6") (re.union (str.to_re "nYF") (str.to_re "Ui")))) (re.++ (re.union (str.to_re "}`q") (re.union (str.to_re "U") (re.union (str.to_re "r)|") (str.to_re "F")))) (re.++ (re.union (str.to_re "@8") (re.union (str.to_re "g") (re.union (str.to_re "'p") (str.to_re ")")))) (re.union (str.to_re "sua") (re.union (str.to_re "F") (re.union (str.to_re "O") (str.to_re "@o>")))))))) (re.++ ((_ re.loop 10 83) (re.++ (re.union (str.to_re "m^") (re.union (str.to_re "n]R") (re.union (str.to_re "r") (str.to_re "}f")))) (re.++ (re.union (str.to_re "He,") (re.union (str.to_re "#") (re.union (str.to_re "E") (str.to_re "Lk")))) (re.++ (re.union (str.to_re "4`X") (re.union (str.to_re "1AZ") (re.union (str.to_re "Q&") (str.to_re "V*l")))) (re.union (str.to_re "ED") (re.union (str.to_re ";W") (re.union (str.to_re "Y") (str.to_re "jFG")))))))) ((_ re.loop 4 870) (re.++ (re.union (str.to_re "y") (re.union (str.to_re "+F:") (re.union (str.to_re "!") (str.to_re "E")))) (re.++ (re.union (str.to_re "5") (re.union (str.to_re "tee") (re.union (str.to_re "}") (str.to_re "0")))) (re.++ (re.union (str.to_re "a.") (re.union (str.to_re "7") (re.union (str.to_re "q9") (str.to_re "]")))) (re.union (str.to_re "zFb") (re.union (str.to_re "|C>") (re.union (str.to_re "?") (str.to_re "4{^")))))))))))))
(assert (not (str.in_re var0 (re.++ ((_ re.loop 17 96) (re.++ (re.union (str.to_re "9yN") (re.union (str.to_re "F|") (re.union (str.to_re "Xao") (str.to_re "8")))) (re.++ (re.union (str.to_re "e*") (re.union (str.to_re "b6X") (re.union (str.to_re "\\X&") (str.to_re "2")))) (re.++ (re.union (str.to_re ",KR") (re.union (str.to_re "x") (re.union (str.to_re "d!?") (str.to_re "~;B")))) (re.union (str.to_re "Y'") (re.union (str.to_re "aa<") (re.union (str.to_re "[") (str.to_re "8+")))))))) (re.++ ((_ re.loop 19 708) (re.++ (re.union (str.to_re "qG") (re.union (str.to_re "_~0") (re.union (str.to_re "&)") (str.to_re "n^")))) (re.++ (re.union (str.to_re "'") (re.union (str.to_re "f") (re.union (str.to_re "9") (str.to_re "V4}")))) (re.++ (re.union (str.to_re "Y") (re.union (str.to_re "dI\\") (re.union (str.to_re "r") (str.to_re "eGG")))) (re.union (str.to_re "!.<") (re.union (str.to_re ".") (re.union (str.to_re "\\.") (str.to_re ")")))))))) (re.++ ((_ re.loop 18 871) (re.++ (re.union (str.to_re "j") (re.union (str.to_re "U_") (re.union (str.to_re "nq") (str.to_re "!+")))) (re.++ (re.union (str.to_re "H!") (re.union (str.to_re "`w.") (re.union (str.to_re ":*6") (str.to_re ".")))) (re.++ (re.union (str.to_re "X") (re.union (str.to_re "^<w") (re.union (str.to_re "4`") (str.to_re "%ue")))) (re.union (str.to_re ":") (re.union (str.to_re "zH") (re.union (str.to_re "hdy") (str.to_re ".")))))))) ((_ re.loop 18 898) (re.++ (re.union (str.to_re "+aw") (re.union (str.to_re "l") (re.union (str.to_re "m)") (str.to_re "G{t")))) (re.++ (re.union (str.to_re "pF") (re.union (str.to_re "6") (re.union (str.to_re "K") (str.to_re "*R")))) (re.++ (re.union (str.to_re "UR") (re.union (str.to_re "V:/") (re.union (str.to_re "uK") (str.to_re ".&%")))) (re.union (str.to_re "\u0022K[") (re.union (str.to_re ":B8") (re.union (str.to_re "O") (str.to_re "G"))))))))))))))
(assert (not (str.in_re var0 (re.++ (re.* re.allchar) (re.++ (re.union (str.to_re "<") (re.union (str.to_re ">") (re.union (str.to_re "'") (re.union (str.to_re "\u0022") (str.to_re "&"))))) (re.* re.allchar))))))
(assert (<= 50 (str.len var0)))
(check-sat)
(get-model)
